453 452 461 462 463 464 465 466 467 468 469 470 496 497 519 518 524 525 526 523 522 521 520 517 516 515 514 527 512 513 511 510 509 506 507 508 302 301 303 307 304 306 305 318 317 319 320 321 297 298 299 258 259 260 261 262 263 264 265 266 267 296 295 294 293 291 292 270 269 268 271 272 273 274 275 290 289 288 276 277 278 279 282 281 280 287 286 285 284 283 334 335 336 337 338 339 333 332 331 330 340 341 344 343 342 366 329 328 327 326 325 324 323 322 373 372 371 396 395 394 393 391 392 390 389 388 387 385 386 382 383 384 410 418 411 412 356 355 353 354 357 401 402 403 409 408 407 406 405 404 400 399 397 398 370 369 368 367 365 364 345 346 362 363 361 360 359 358 348 347 349 350 351 352 414 415 416 413 417 419 420 421 422 423 424 425 426 427 428 429 431 430 432 433 434 435 436 438 437 3 2 1 4 0 5 573 572 6 7 8 9 10 11 16 15 14 13 12 23 22 21 24 25 26 27 28 29 31 30 32 33 34 35 36 37 38 40 41 39 42 43 49 48 47 44 45 46 555 91 92 90 93 94 89 88 87 86 85 84 51 50 52 54 53 55 56 83 82 57 58 59 81 80 79 61 60 63 64 62 78 77 76 75 74 73 72 65 66 67 68 69 70 71 123 122 121 120 119 118 106 105 104 103 542 541 543 544 547 546 545 548 549 550 551 101 102 96 95 97 98 99 100 552 553 554 556 557 558 559 560 561 562 563 564 565 566 567 475 476 477 478 479 480 481 482 483 484 485 486 489 488 534 487 535 536 537 539 538 540 176 177 178 187 188 186 185 184 183 182 179 181 180 169 171 170 172 175 174 173 108 109 107 110 111 112 113 114 115 116 117 124 125 126 127 128 129 130 131 132 133 134 135 136 137 138 139 140 141 151 150 149 152 148 147 146 142 143 144 145 158 157 153 154 155 156 159 160 161 162 168 163 167 166 164 165 203 204 202 201 200 199 198 208 207 206 205 197 196 195 194 209 210 211 212 213 214 215 217 216 246 247 245 248 249 250 251 252 254 253 255 256 257 300 241 242 244 243 240 239 238 237 236 235 234 233 232 223 224 222 221 220 218 219 193 192 191 190 226 225 189 227 228 229 230 231 533 532 531 530 529 528 490 491 492 493 494 495 471 472 473 474 570 569 568 20 19 18 17 571 460 459 458 457 456 455 454 439 440 441 450 449 448 447 446 442 443 444 445 381 380 379 378 377 376 375 374 315 314 316 313 312 451 311 310 309 308 505 504 503 502 498 501 500 499